WARNING: for repeatability, setting FPU to use double precision
============================[ Problem Statistics ]=============================
|                                                                             |
|  Number of variables:            50                                         |
|  Number of clauses:             218                                         |
|  Parse time:                   0.00 s                                       |
|                                                                             |
============================[ Search Statistics ]==============================
| Conflicts |          ORIGINAL         |          LEARNT          | Progress |
|           |    Vars  Clauses Literals |    Limit  Clauses Lit/Cl |          |
===============================================================================
===============================================================================
restarts              : 1
conflicts             : 19             (13748 /sec)
decisions             : 26             (0.00 % random) (18813 /sec)
propagations          : 321            (232272 /sec)
conflict literals     : 77             (15.38 % deleted)
Memory used           : 20.00 MB
CPU time              : 0.001382 s

SATISFIABLE
